data/solutions/recovery/degenerate/intermediate/binding/degenerate_intermediate_instance38/53.sol
Elapsed time: 0.06
Upper bound: 310910.0
Planning weighted value: 14053616231.0
C[0]=310910.0
C[1]=310901.0
C[2]=308457.0
C[3]=303492.0
C[4]=295316.0
C[5]=289288.0
C[6]=288680.0
C[7]=287340.0
C[8]=286739.0
C[9]=279869.0
C[10]=277311.0
C[11]=273173.0
C[12]=272942.0
C[13]=0.0
C[14]=0.0
C[15]=0.0
y[0]=12
y[1]=11
y[2]=5
y[3]=3
y[4]=8
y[5]=0
y[6]=12
y[7]=1
y[8]=4
y[9]=7
y[10]=5
y[11]=10
y[12]=4
y[13]=8
y[14]=1
y[15]=0
y[16]=8
y[17]=3
y[18]=10
y[19]=2
y[20]=12
y[21]=9
y[22]=5
y[23]=7
y[24]=12
y[25]=11
y[26]=3
y[27]=10
y[28]=6
y[29]=6
y[30]=10
y[31]=1
y[32]=6
y[33]=5
y[34]=0
y[35]=3
y[36]=1
y[37]=6
y[38]=12
y[39]=1
y[40]=7
y[41]=2
y[42]=7
y[43]=4
y[44]=8
y[45]=9
y[46]=9
y[47]=11
y[48]=9
y[49]=9
y[50]=2
y[51]=4
y[52]=2
y[53]=0
y[54]=7
y[55]=11
y[56]=11
y[57]=6
y[58]=2
y[59]=5
y[60]=7
y[61]=0
y[62]=8
y[63]=2
y[64]=4
y[65]=3
